


*************************************************************

   NEOS Server Version 6.0
   Job#     : 18279517
   Password : cbWIzZPk
   User     : None

   Disclaimer:

   This information is provided without any express or
   implied warranty. In particular, there is no warranty
   of any kind concerning the fitness of this
   information for any particular purpose.

   Announcements:
*************************************************************

Running:

  Job #    Cat   Solver     Input  Submitted    Started      Elapsed  Email  Host 
-------------------------------------------------------------------------------------------------------
18279304   cp    Knitro     AMPL   01/25 05:00  01/25 05:00  1:21:39  jeong  prod-sub-1.neos-server.org
18279506   lp    cplex      AMPL   01/25 06:14  01/25 06:14  0:07:21  Firmk  prod-sub-1.neos-server.org

Queued:

  Job #   Cat   Solver     Input  Submitted
---------------------------------------------------
18279517  milp  Gurobi     AMPL   01/25 06:22

Job 18279517 dispatched
password: cbWIzZPk
---------- Begin Solver Output -----------
Condor submit: 'neos.submit'
Condor submit: 'watchdog.submit'
Job submitted to NEOS HTCondor pool.
You are using the solver gurobi_ampl.
Checking ampl.mod for gurobi_options...
Checking ampl.com for gurobi_options...
Executing AMPL.
processing data.
processing commands.
Executing on prod-exec-1.neos-server.org
N = 9


"option presolve 0;" used, but "option presolve 10;" might work better.
9 variables, all nonlinear
0 algebraic constraints
3 logical constraints
1 linear objective; 9 nonzeros.

Gurobi 12.0.3:   tech:threads = 4
  pre:solve = 2
  alg:iisfind = 1
Set parameter LogToConsole to value 1
  tech:outlev = 1

AMPL MP initial flat model has 9 variables (9 integer, 0 binary);
Objectives: 1 linear; 
Constraints:  18 linear;
Logical expressions:  3 alldiff;

AMPL MP final model has 274 variables (30 integer, 243 binary);
Objectives: 1 linear; 
Constraints:  97 linear;


Set parameter InfUnbdInfo to value 1
Gurobi Optimizer version 12.0.3 build v12.0.3rc0 (linux64 - "Rocky Linux 8.10 (Green Obsidian)")

CPU model: Intel(R) Xeon(R) CPU E5-2698 v3 @ 2.30GHz, instruction set [SSE2|AVX|AVX2]
Thread count: 32 physical cores, 64 logical processors, using up to 4 threads

Non-default parameters:
InfUnbdInfo  1
Presolve  2
Threads  4

Optimize a model with 97 rows, 274 columns and 779 nonzeros
Model fingerprint: 0xb2710740
Variable types: 22 continuous, 252 integer (0 binary)
Coefficient statistics:
  Matrix range     [1e+00, 2e+01]
  Objective range  [0e+00, 0e+00]
  Bounds range     [1e+00, 1e+01]
  RHS range        [1e+00, 9e+00]
Presolve removed 37 rows and 187 columns
Presolve time: 0.01s
Presolved: 60 rows, 87 columns, 446 nonzeros
Variable types: 0 continuous, 87 integer (81 binary)
Found heuristic solution: objective 0.0000000

Explored 0 nodes (0 simplex iterations) in 0.01 seconds (0.01 work units)
Thread count was 4 (of 64 available processors)

Solution count 1: 0 

Optimal solution found (tolerance 1.00e-04)
Best objective 0.000000000000e+00, best bound 0.000000000000e+00, gap 0.0000%
Gurobi 12.0.3: optimal solution; objective 0
0 simplex iterations
Solution
========
 1  3
 2  5
 3  8
 4  2
 5  9
 6  6
 7  1
 8  7
 9  4
Job completed ... awaiting results.
